PROBLEM NAME: 	small
KNAPSACK DATA TYPE: uncorrelated
DIMENSION:	11
NUMBER OF ITEMS: 	10
CAPACITY OF KNAPSACK: 	260
MIN SPEED: 	0.1
MAX SPEED: 	1
RENTING RATIO: 	79.32
EDGE_WEIGHT_TYPE:	CEIL_2D
NODE_COORD_SECTION	(INDEX, X, Y): 
1	37	52
2	49	49
3	52	64
4	20	26
5	40	30
6	21	47
7	17	63
8	31	62
9	52	33
10	51	21
11	42	41
ITEMS SECTION	(INDEX, PROFIT, WEIGHT, ASSIGNED NODE NUMBER): 
1	55	95	2
2	10	4	3
3	47	60	4
4	5	32	5
5	4	23	6
6	50	72	7
7	8	80	8
8	61	62	9
9	85	65	10
10	87	46	11
